NAME: INVENTADO
TYPE: TSP
COMMENT: inventado
DIMENSION: 80
EDGE_WEIGHT_TYPE: EUC_2D
NODE_COORD_SECTION
1 9.771 15.161
2 22.635 14.116
3 10.263 6.264
4 24.320 17.214
5 13.582 10.962
6 -0.818 19.556
7 11.452 18.466
8 30.660 16.053
9 17.820 26.527
10 17.371 20.064
11 9.817 11.833
12 6.148 26.933
13 29.164 15.545
14 18.330 16.370
15 41.008 27.716
16 18.810 25.413
17 30.607 11.948
18 25.041 24.927
19 20.294 26.377
20 29.749 20.391
21 17.318 27.547
22 21.525 23.550
23 35.899 23.336
24 19.831 9.755
25 23.236 23.189
26 25.098 24.767
27 26.005 22.273
28 21.527 25.009
29 14.966 12.719
30 12.572 21.249
31 6.389 16.595
32 18.912 22.852
33 12.243 20.922
34 20.739 16.190
35 20.964 19.008
36 11.641 17.728
37 13.308 35.378
38 18.584 15.439
39 8.993 20.350
40 23.347 20.715
41 69.618 72.282
42 71.852 81.946
43 73.790 79.729
44 94.587 65.684
45 78.381 80.185
46 68.489 88.687
47 78.285 83.368
48 84.992 91.588
49 75.269 75.443
50 70.349 70.520
51 94.752 76.810
52 66.666 85.873
53 94.389 72.715
54 80.033 69.366
55 64.450 78.880
56 70.962 70.955
57 80.487 83.485
58 78.650 90.500
59 75.226 77.643
60 87.371 98.149
61 96.461 87.937
62 81.441 69.654
63 92.068 79.664
64 98.910 80.806
65 64.742 89.230
66 81.703 75.985
67 81.590 80.405
68 82.710 66.097
69 80.539 83.876
70 70.417 90.666
71 79.068 63.955
72 93.142 77.326
73 80.745 78.752
74 95.923 80.647
75 74.772 75.170
76 84.982 85.187
77 75.027 87.931
78 74.887 81.666
79 84.690 82.658
80 82.547 82.652
EOF
